(set-logic QF_S)
(declare-fun var0 () String)
(assert (RegexIn var0 (RegexConcat (RegexUnion (RegexStar (Str2Reg "0")) (RegexStar (Str2Reg "1"))) (RegexConcat (RegexPlus (RegexStar (Str2Reg "222"))) (RegexConcat (RegexPlus (RegexStar (Str2Reg "333"))) (RegexConcat (RegexPlus (RegexStar (Str2Reg "4"))) (RegexConcat (RegexPlus (RegexPlus (Str2Reg "5"))) (RegexConcat (RegexStar (RegexPlus (Str2Reg "66"))) (RegexConcat (RegexUnion (RegexUnion (Str2Reg "777") (Str2Reg "8")) (RegexUnion (Str2Reg "9") (Str2Reg "a"))) (RegexConcat (RegexPlus (RegexPlus (Str2Reg "bb"))) (RegexConcat (RegexPlus (RegexUnion (Str2Reg "c") (Str2Reg "ddd"))) (RegexConcat (RegexUnion (RegexPlus (Str2Reg "ee")) (RegexPlus (Str2Reg "ff"))) (RegexConcat (RegexStar (RegexPlus (Str2Reg "gg"))) (RegexConcat (RegexPlus (RegexStar (Str2Reg "h"))) (RegexConcat (RegexPlus (RegexUnion (Str2Reg "ii") (Str2Reg "j"))) (RegexConcat (RegexStar (RegexStar (Str2Reg "kk"))) (RegexConcat (RegexUnion (RegexStar (Str2Reg "lll")) (RegexStar (Str2Reg "mm"))) (RegexConcat (RegexStar (RegexPlus (Str2Reg "n"))) (RegexConcat (RegexUnion (RegexStar (Str2Reg "oo")) (RegexStar (Str2Reg "p"))) (RegexConcat (RegexStar (RegexStar (Str2Reg "q"))) (RegexConcat (RegexStar (RegexUnion (Str2Reg "rrr") (Str2Reg "ss"))) (RegexConcat (RegexStar (RegexPlus (Str2Reg "ttt"))) (RegexConcat (RegexUnion (RegexPlus (Str2Reg "uu")) (RegexPlus (Str2Reg "vvv"))) (RegexConcat (RegexUnion (RegexStar (Str2Reg "w")) (RegexStar (Str2Reg "x"))) (RegexConcat (RegexPlus (RegexUnion (Str2Reg "y") (Str2Reg "z"))) (RegexConcat (RegexUnion (RegexUnion (Str2Reg "A") (Str2Reg "BB")) (RegexUnion (Str2Reg "CC") (Str2Reg "D"))) (RegexConcat (RegexUnion (RegexPlus (Str2Reg "E")) (RegexPlus (Str2Reg "FF"))) (RegexConcat (RegexPlus (RegexStar (Str2Reg "G"))) (RegexConcat (RegexPlus (RegexPlus (Str2Reg "HH"))) (RegexConcat (RegexStar (RegexStar (Str2Reg "II"))) (RegexConcat (RegexPlus (RegexUnion (Str2Reg "JJJ") (Str2Reg "KK"))) (RegexConcat (RegexPlus (RegexStar (Str2Reg "LL"))) (RegexConcat (RegexUnion (RegexPlus (Str2Reg "MMM")) (RegexPlus (Str2Reg "NNN"))) (RegexConcat (RegexPlus (RegexUnion (Str2Reg "OO") (Str2Reg "PP"))) (RegexUnion (RegexPlus (Str2Reg "QQQ")) (RegexPlus (Str2Reg "RR")))))))))))))))))))))))))))))))))))))
(check-sat)